(declare-sort Loc 0)
(declare-const f1_0_main_Load Loc)
(declare-const f106_0_main_InvokeMethod Loc)
(declare-const f2232_0_flatten_NONNULL Loc)
(declare-const f1745_0_main_InvokeMethod Loc)
(declare-const f692_0_createTree_Return Loc)
(declare-const f2190_0_main_InvokeMethod Loc)
(declare-const f1829_0_flatten_Return Loc)
(declare-const f2161_0_count_NONNULL Loc)
(declare-const f99_0_createTree_NE Loc)
(declare-const f1706_0_createTree_LE Loc)
(declare-const f197_0_createNode_Return Loc)
(declare-const f1787_0_createTree_NONNULL Loc)
(declare-const f1857_0_createTree_FieldAccess Loc)
(declare-const f1910_0_createTree_LE Loc)
(declare-const f1998_0_createTree_FieldAccess Loc)
(declare-const f572_0_random_GT Loc)
(declare-const f2411_0_count_InvokeMethod Loc)
(declare-const __init Loc)
(assert (distinct f1_0_main_Load f106_0_main_InvokeMethod f2232_0_flatten_NONNULL f1745_0_main_InvokeMethod f692_0_createTree_Return f2190_0_main_InvokeMethod f1829_0_flatten_Return f2161_0_count_NONNULL f99_0_createTree_NE f1706_0_createTree_LE f197_0_createNode_Return f1787_0_createTree_NONNULL f1857_0_createTree_FieldAccess f1910_0_createTree_LE f1998_0_createTree_FieldAccess f572_0_random_GT f2411_0_count_InvokeMethod __init ))

(define-fun cfg_init ( (pc Loc) (src Loc) (rel Bool) ) Bool
  (and (= pc src) rel))

(define-fun cfg_trans2 ( (pc Loc) (src Loc)
                         (pc1 Loc) (dst Loc)
                         (rel Bool) ) Bool
  (and (= pc src) (= pc1 dst) rel))

(define-fun cfg_trans3 ( (pc Loc) (exit Loc)
                         (pc1 Loc) (call Loc)
                         (pc2 Loc) (return Loc)
                         (rel Bool) ) Bool
  (and (= pc exit) (= pc1 call) (= pc2 return) rel))

(define-fun init_main ( (pc Loc) (arg1 Int) (arg2 Int) (arg3 Int) (arg4 Int) (arg5 Int) (arg6 Int) (arg7 Int) (arg8 Int) (arg9 Int) ) Bool
  (cfg_init pc __init true))

(define-fun next_main (
                 (pc Loc) (arg1 Int) (arg2 Int) (arg3 Int) (arg4 Int) (arg5 Int) (arg6 Int) (arg7 Int) (arg8 Int) (arg9 Int)
                 (pc1 Loc) (arg1P Int) (arg2P Int) (arg3P Int) (arg4P Int) (arg5P Int) (arg6P Int) (arg7P Int) (arg8P Int) (arg9P Int)
             ) Bool
  (or
    (cfg_trans2 pc f1_0_main_Load pc1 f106_0_main_InvokeMethod (and (and (and (and (and (<= arg1P arg1) (> arg1 0)) (> arg1P 0)) (= 0 arg2)) (= 0 arg2P)) (= 0 arg3P)))
    (cfg_trans2 pc f1_0_main_Load pc1 f106_0_main_InvokeMethod (and (and (and (and (<= arg1P arg1) (> arg1 0)) (> arg1P 0)) (= 1 arg2P)) (= arg2 arg3P)))
    (cfg_trans2 pc f106_0_main_InvokeMethod pc1 f2232_0_flatten_NONNULL (and (and (and (<= (+ arg1P 1) arg1) (< arg2 2)) (> arg1 0)) (> arg1P (- 1))))
    (cfg_trans2 pc f1_0_main_Load pc1 f1745_0_main_InvokeMethod (and (and (and (>= arg1 arg1P) (> arg1 0)) (> arg1P 0)) (> arg2P 0)))
    (cfg_trans2 pc f692_0_createTree_Return pc1 f1745_0_main_InvokeMethod (and (and (and (and (and (and (and (<= arg1P arg1) (<= (+ arg1P 1) arg2)) (<= arg2P arg2)) (> arg1 0)) (> arg2 1)) (> arg1P 0)) (> arg2P 1)) (<= (+ arg3 2) arg2)))
    (cfg_trans2 pc f1745_0_main_InvokeMethod pc1 f2232_0_flatten_NONNULL (and (and (and (<= arg1P arg2) (> arg1 0)) (> arg2 0)) (> arg1P 0)))
    (cfg_trans2 pc f1745_0_main_InvokeMethod pc1 f2190_0_main_InvokeMethod (and (and (and (and (and (and (and (<= arg1P arg1) (<= (+ arg1P 1) arg2)) (<= (- arg2P 1) arg1)) (<= arg2P arg2)) (> arg1 0)) (> arg2 1)) (> arg1P 0)) (> arg2P 1)))
    (cfg_trans2 pc f1745_0_main_InvokeMethod pc1 f2190_0_main_InvokeMethod (and (and (and (and (and (and (<= arg1P arg1) (<= (+ arg1P 4) arg2)) (<= arg2P arg2)) (> arg1 0)) (> arg2 4)) (> arg1P 0)) (> arg2P 4)))
    (cfg_trans2 pc f1745_0_main_InvokeMethod pc1 f2190_0_main_InvokeMethod (and (and (and (and (and (and (<= arg1P arg1) (<= (+ arg1P 3) arg2)) (<= arg2P arg2)) (> arg1 0)) (> arg2 3)) (> arg1P 0)) (> arg2P 3)))
    (cfg_trans2 pc f1829_0_flatten_Return pc1 f2190_0_main_InvokeMethod (and (and (and (and (<= arg1P arg1) (<= (- arg2P 1) arg1)) (> arg1 0)) (> arg1P 0)) (> arg2P 1)))
    (cfg_trans2 pc f2190_0_main_InvokeMethod pc1 f2161_0_count_NONNULL (and (and (and (<= arg1P arg2) (> arg1 0)) (> arg2 1)) (> arg1P 1)))
    (cfg_trans2 pc f106_0_main_InvokeMethod pc1 f2161_0_count_NONNULL (and (and (and (<= (+ arg1P 1) arg1) (< arg2 2)) (> arg1 0)) (> arg1P (- 1))))
    (cfg_trans2 pc f1745_0_main_InvokeMethod pc1 f2161_0_count_NONNULL (and (and (and (<= arg1P arg2) (> arg1 0)) (> arg2 2)) (> arg1P 2)))
    (cfg_trans2 pc f1_0_main_Load pc1 f99_0_createTree_NE (and (and (and (> arg1 0) (> arg2 0)) (= 0 arg1P)) (= arg2 arg2P)))
    (cfg_trans2 pc f1_0_main_Load pc1 f99_0_createTree_NE (and (and (and (> arg1P (- 1)) (> arg2 0)) (> arg1 0)) (= arg2 arg2P)))
    (cfg_trans2 pc f99_0_createTree_NE pc1 f1706_0_createTree_LE (and (and (and (and (and (and (> arg1 0) (> arg2 0)) (> arg2P 1)) (> arg1P 1)) (= arg1 arg3P)) (= arg2 arg4P)) (= 1 arg5P)))
    (cfg_trans2 pc f99_0_createTree_NE pc1 f1706_0_createTree_LE (and (and (and (and (and (> arg1 0) (> arg2 0)) (> arg2P 1)) (> arg1P 1)) (= arg1 arg3P)) (= arg2 arg4P)))
    (cfg_trans2 pc f197_0_createNode_Return pc1 f1706_0_createTree_LE (and (and (and (and (> arg2P 1) (> arg1P 1)) (= arg1 arg3P)) (= arg2 arg4P)) (= arg3 arg5P)))
    (cfg_trans2 pc f1706_0_createTree_LE pc1 f1787_0_createTree_NONNULL (and (and (and (and (and (and (and (and (and (and (and (and (and (and (and (and (>= arg5 arg4) (> arg4 (- 1))) (> arg3 0)) (<= arg2P arg1)) (<= arg3P arg2)) (<= (+ arg4P 1) arg2)) (> arg1 0)) (> arg2 0)) (> arg2P 0)) (> arg3P 0)) (> arg4P (- 1))) (<= (+ arg7P 2) arg1)) (<= (+ arg8P 2) arg1)) (<= (+ arg9P 2) arg2)) (= arg3 arg1P)) (= arg4 arg5P)) (= arg5 arg6P)))
    (cfg_trans2 pc f1787_0_createTree_NONNULL pc1 f1706_0_createTree_LE (and (and (and (and (and (and (and (and (and (and (and (and (and (<= arg1P arg2) (<= (+ arg2P 2) arg3)) (<= arg2P arg4)) (> arg2 0)) (> arg3 2)) (> arg4 0)) (> arg1P 0)) (> arg2P 0)) (<= (+ arg7 2) arg2)) (<= (+ arg8 2) arg2)) (<= (+ arg9 2) arg3)) (= (- arg1 1) arg3P)) (= arg5 arg4P)) (= arg6 arg5P)))
    (cfg_trans2 pc f1787_0_createTree_NONNULL pc1 f1857_0_createTree_FieldAccess (and (and (and (and (and (and (and (and (and (and (and (and (and (and (and (and (>= arg6 arg5) (> arg1 0)) (>= arg2 arg2P)) (>= arg3 arg3P)) (> arg2 0)) (> arg3 1)) (> arg4 (- 1))) (> arg2P 0)) (> arg3P 1)) (>= arg2 (+ arg7 2))) (>= arg2 (+ arg8 2))) (>= arg3 (+ arg9 2))) (= arg1 arg1P)) (= arg5 arg4P)) (= arg6 arg5P)) (= arg8 arg6P)) (= arg9 arg7P)))
    (cfg_trans2 pc f1787_0_createTree_NONNULL pc1 f1857_0_createTree_FieldAccess (and (and (and (and (and (and (and (and (and (and (and (and (and (and (and (>= arg6 arg5) (> arg1 0)) (<= arg2P arg2)) (<= arg3P arg3)) (> arg2 0)) (> arg3 1)) (> arg4 (- 1))) (> arg2P 0)) (> arg3P 1)) (<= (+ arg7 2) arg2)) (<= (+ arg8 2) arg2)) (<= (+ arg9 2) arg3)) (= arg1 arg1P)) (= arg5 arg4P)) (= arg8 arg6P)) (= arg9 arg7P)))
    (cfg_trans2 pc f1706_0_createTree_LE pc1 f1910_0_createTree_LE (and (and (and (and (and (and (and (and (and (and (and (and (and (and (and (> arg3 0) (> arg4 (- 1))) (< arg5 arg4)) (> arg5 (- 1))) (<= arg2P arg1)) (<= arg3P arg2)) (> arg1 0)) (> arg2 0)) (> arg2P 0)) (> arg3P 0)) (<= (+ arg7P 2) arg1)) (<= (+ arg8P 2) arg1)) (= arg3 arg1P)) (= 0 arg4P)) (= arg4 arg5P)) (= (+ arg5 1) arg6P)))
    (cfg_trans2 pc f1706_0_createTree_LE pc1 f1910_0_createTree_LE (and (and (and (and (and (and (and (and (and (and (and (and (and (and (and (> arg3 0) (> arg4 (- 1))) (> arg5 (- 1))) (> arg4P (- 1))) (< arg5 arg4)) (<= arg2P arg1)) (<= arg3P arg2)) (> arg1 0)) (> arg2 0)) (> arg2P 0)) (> arg3P 0)) (<= (+ arg7P 2) arg1)) (<= (+ arg8P 2) arg1)) (= arg3 arg1P)) (= arg4 arg5P)) (= (+ arg5 1) arg6P)))
    (cfg_trans2 pc f1857_0_createTree_FieldAccess pc1 f1706_0_createTree_LE (and (and (and (and (and (and (and (and (> arg2 0) (> arg3 1)) (> arg1P 0)) (> arg2P 0)) (<= (+ arg6 2) arg2)) (<= (+ arg7 2) arg3)) (= (- arg1 1) arg3P)) (= arg4 arg4P)) (= arg5 arg5P)))
    (cfg_trans2 pc f1857_0_createTree_FieldAccess pc1 f1706_0_createTree_LE (and (and (and (and (and (and (and (and (and (and (and (and (and (<= (- arg1P 2) arg2) (<= (- arg1P 2) arg3)) (<= (- arg2P 2) arg2)) (<= (- arg2P 2) arg3)) (> arg2 1)) (> arg3 1)) (> arg1P 3)) (> arg2P 3)) (<= (+ arg6 2) arg2)) (<= (+ arg6 2) arg3)) (= arg6 arg7)) (= (- arg1 1) arg3P)) (= arg4 arg4P)) (= arg5 arg5P)))
    (cfg_trans2 pc f1910_0_createTree_LE pc1 f1787_0_createTree_NONNULL (and (and (and (and (and (and (and (and (and (and (and (and (and (and (and (and (<= arg2P arg2) (<= arg3P arg3)) (<= (+ arg4P 1) arg3)) (> arg2 0)) (> arg3 0)) (> arg2P 0)) (> arg3P 0)) (> arg4P (- 1))) (<= (+ arg7 2) arg2)) (<= (+ arg8 2) arg2)) (<= (+ arg9P 2) arg3)) (= 0 arg4)) (= arg1 arg1P)) (= arg5 arg5P)) (= arg6 arg6P)) (= arg7 arg7P)) (= arg8 arg8P)))
    (cfg_trans2 pc f1910_0_createTree_LE pc1 f1706_0_createTree_LE (and (and (and (and (and (and (and (and (and (and (and (<= arg1P arg2) (> arg4 0)) (<= (+ arg2P 2) arg3)) (> arg2 0)) (> arg3 2)) (> arg1P 0)) (> arg2P 0)) (<= (+ arg7 2) arg2)) (<= (+ arg8 2) arg2)) (= (- arg1 1) arg3P)) (= arg5 arg4P)) (= arg6 arg5P)))
    (cfg_trans2 pc f1910_0_createTree_LE pc1 f1998_0_createTree_FieldAccess (and (and (and (and (and (and (and (and (and (and (and (and (and (and (and (> arg4 0) (> arg6 0)) (> arg1 0)) (<= arg2P arg2)) (<= arg3P arg3)) (> arg2 0)) (> arg3 1)) (> arg2P 0)) (> arg3P 1)) (<= (+ arg7 2) arg2)) (<= (+ arg8 2) arg2)) (<= (+ arg7P 2) arg3)) (= arg1 arg1P)) (= arg5 arg4P)) (= arg6 arg5P)) (= arg7 arg6P)))
    (cfg_trans2 pc f1910_0_createTree_LE pc1 f1998_0_createTree_FieldAccess (and (and (and (and (and (and (and (and (and (and (and (and (and (and (> arg4 0) (> arg6 0)) (> arg1 0)) (<= arg2P arg2)) (<= arg3P arg3)) (> arg2 0)) (> arg3 1)) (> arg2P 0)) (> arg3P 1)) (<= (+ arg7 2) arg2)) (<= (+ arg8 2) arg2)) (<= (+ arg7P 2) arg3)) (= arg1 arg1P)) (= arg5 arg4P)) (= arg7 arg6P)))
    (cfg_trans2 pc f1998_0_createTree_FieldAccess pc1 f1706_0_createTree_LE (and (and (and (and (and (and (and (and (> arg2 0) (> arg3 1)) (> arg1P 0)) (> arg2P 0)) (<= (+ arg6 2) arg2)) (<= (+ arg7 2) arg3)) (= (- arg1 1) arg3P)) (= arg4 arg4P)) (= arg5 arg5P)))
    (cfg_trans2 pc f1998_0_createTree_FieldAccess pc1 f1706_0_createTree_LE (and (and (and (and (and (and (and (and (and (and (and (and (and (<= (- arg1P 2) arg2) (<= (- arg1P 2) arg3)) (<= (- arg2P 2) arg2)) (<= (- arg2P 2) arg3)) (> arg2 1)) (> arg3 1)) (> arg1P 3)) (> arg2P 3)) (<= (+ arg6 2) arg2)) (<= (+ arg6 2) arg3)) (= arg6 arg7)) (= (- arg1 1) arg3P)) (= arg4 arg4P)) (= arg5 arg5P)))
    (cfg_trans2 pc f2232_0_flatten_NONNULL pc1 f2232_0_flatten_NONNULL (and (and (<= (+ arg1P 2) arg1) (> arg1 1)) (> arg1P (- 1))))
    (cfg_trans2 pc f2232_0_flatten_NONNULL pc1 f2232_0_flatten_NONNULL (and (and (<= (- arg1P 2) arg1) (> arg1 2)) (> arg1P 2)))
    (cfg_trans2 pc f99_0_createTree_NE pc1 f572_0_random_GT (and (and (and (> arg2 0) (> arg1 0)) (= arg2 arg2P)) (= 1 arg3P)))
    (cfg_trans2 pc f1787_0_createTree_NONNULL pc1 f572_0_random_GT (and (and (and (and (and (and (and (and (and (and (> arg5 (- 1)) (>= arg6 arg5)) (> arg1 0)) (> arg2 0)) (> arg3 1)) (> arg4 (- 1))) (<= (+ arg7 2) arg2)) (<= (+ arg8 2) arg2)) (<= (+ arg9 2) arg3)) (= arg5 arg2P)) (= arg6 arg3P)))
    (cfg_trans2 pc f1910_0_createTree_LE pc1 f572_0_random_GT (and (and (and (and (and (and (and (and (and (> arg1 0) (> arg6 0)) (> arg5 (- 1))) (> arg4 0)) (> arg2 0)) (> arg3 1)) (<= (+ arg7 2) arg2)) (<= (+ arg8 2) arg2)) (= arg5 arg2P)) (= arg6 arg3P)))
    (cfg_trans2 pc f2161_0_count_NONNULL pc1 f2232_0_flatten_NONNULL (and (and (<= arg1P arg1) (> arg1 2)) (> arg1P 2)))
    (cfg_trans2 pc f2161_0_count_NONNULL pc1 f2161_0_count_NONNULL (and (and (<= (+ arg1P 2) arg1) (> arg1 1)) (> arg1P (- 1))))
    (cfg_trans2 pc f2161_0_count_NONNULL pc1 f2411_0_count_InvokeMethod (and (and (<= (+ arg1P 3) arg1) (> arg1 2)) (> arg1P (- 1))))
    (cfg_trans2 pc f2161_0_count_NONNULL pc1 f2411_0_count_InvokeMethod (and (> arg1 2) (> arg1P (- 1))))
    (cfg_trans2 pc f2161_0_count_NONNULL pc1 f2411_0_count_InvokeMethod (and (> arg1 2) (> arg1P 1)))
    (cfg_trans2 pc f2411_0_count_InvokeMethod pc1 f2161_0_count_NONNULL (and (and (<= arg1P arg1) (> arg1 (- 1))) (> arg1P (- 1))))
    (cfg_trans2 pc __init pc1 f1_0_main_Load true)
  )
)
